c random assignment satisfied 0/430 clauses
o 430
c flipped 0/100 variables (k=0)
c solution improved by 163 clauses
o 267
c flipped 0/100 variables (k=0)
c solution improved by 43 clauses
o 224
c flipped 0/100 variables (k=0)
c solution improved by 1 clause
o 223
c flipped 0/100 variables (k=0)
c solution improved by 1 clause
o 222
c flipped 0/100 variables (k=0)
c solution improved by 8 clauses
o 214
c flipped 0/100 variables (k=0)
c solution improved by 1 clause
o 213
c flipped 0/100 variables (k=0)
c solution improved by 1 clause
o 212
c flipped 0/100 variables (k=0)
c solution improved by 4 clauses
o 208
c flipped 0/100 variables (k=0)
c solution improved by 53 clauses
o 155
c flipped 0/100 variables (k=0)
c solution improved by 1 clause
o 154
c flipped 0/100 variables (k=0)
c solution improved by 7 clauses
o 147
c flipped 0/100 variables (k=0)
c solution improved by 1 clause
o 146
c flipped 0/100 variables (k=0)
c solution improved by 1 clause
o 145
c flipped 0/100 variables (k=0)
c solution improved by 5 clauses
o 140
c flipped 0/100 variables (k=0)
c solution improved by 12 clauses
o 128
c flipped 0/100 variables (k=0)
c solution improved by 22 clauses
o 106
c flipped 0/100 variables (k=0)
c solution improved by 1 clause
o 105
c flipped 0/100 variables (k=0)
c solution improved by 8 clauses
o 97
c flipped 0/100 variables (k=0)
c solution improved by 11 clauses
o 86
c flipped 0/100 variables (k=0)
c solution improved by 1 clause
o 85
c flipped 0/100 variables (k=0)
c solution improved by 4 clauses
o 81
c flipped 0/100 variables (k=0)
c solution improved by 2 clauses
o 79
c flipped 0/100 variables (k=0)
c solution improved by 5 clauses
o 74
c flipped 0/100 variables (k=0)
c solution improved by 1 clause
o 73
c flipped 0/100 variables (k=0)
c solution improved by 8 clauses
o 65
c flipped 0/100 variables (k=0)
c solution improved by 1 clause
o 64
c flipped 0/100 variables (k=0)
c solution improved by 2 clauses
o 62
c flipped 0/100 variables (k=0)
c solution improved by 4 clauses
o 58
c flipped 0/100 variables (k=0)
c solution improved by 1 clause
o 57
c flipped 0/100 variables (k=0)
c solution improved by 4 clauses
o 53
v 0001011101101101001010010010000000110010001001010111111111000000011001011010101001110011000000110101
c stuck at 377/430 clauses with k=0
s UNKNOWN
